(set-info :smt-lib-version 2.6)
(set-logic LRA)
(set-info :source |
   Monniaux, David; Quantifier Elimination by Lazy Model Enumeration, CAV 2010
|)
(set-info :category "random")
; ./Mjollnir_examples/B2/formula_130.m
(set-info :status sat)
(assert
 (forall ((|v11:0| Real) )(exists ((|v10:1| Real) )(forall ((|v9:2| Real) )(exists ((|v8:3| Real) )(forall ((|v7:4| Real) )(exists ((|v6:5| Real) )(forall ((|v5:6| Real) )(exists ((|v4:7| Real) )(forall ((|v3:8| Real) )(exists ((|v2:9| Real) )(forall ((|v1:10| Real) )(exists ((|v0:11| Real) )(let ((?x103 (- 8)))
(let ((?x594 (+ (+ (* (- 11) |v10:1|) (* (- 9) |v10:1|)) (* 4 |v10:1|))))
(let ((?x90 (- 9)))
(let ((?x587 (+ (+ (* 6 |v7:4|) (* 9 |v7:4|)) (* (- 11) |v4:7|))))
(let (($x598 (or (<= (+ ?x587 (* 10 |v4:7|)) ?x90) (<= (+ ?x594 (* 12 |v5:6|)) ?x103))))
(let ((?x71 19))
(let ((?x138 0))
(let ((?x460 (* ?x138 |v6:5|)))
(let ((?x580 (+ (+ (* (- 12) |v6:5|) (* (- 1) |v8:3|)) (* 16 |v3:8|))))
(let ((?x226 4))
(let ((?x49 17))
(let ((?x117 (* ?x49 |v3:8|)))
(let ((?x573 (+ (+ (* 3 |v8:3|) (* (- 2) |v3:8|)) (* (- 17) |v1:10|))))
(let ((?x86 (- 19)))
(let ((?x65 (- 6)))
(let ((?x212 (* ?x65 |v5:6|)))
(let ((?x566 (+ (+ (+ (* (- 15) |v11:0|) (* 11 |v3:8|)) ?x212) (* (- 20) |v1:10|))))
(let ((?x173 7))
(let ((?x561 (+ (+ (+ (* ?x49 |v2:9|) (* ?x173 |v7:4|)) (* ?x138 |v0:11|)) (* (- 18) |v2:9|))))
(let ((?x552 (+ (+ (* ?x71 |v8:3|) (* (- 1) |v3:8|)) (* 14 |v7:4|))))
(let ((?x36 2))
(let ((?x544 (+ (+ (* 3 |v8:3|) (* 20 |v9:2|)) (* 13 |v1:10|))))
(let (($x556 (and (<= (+ ?x544 (* 16 |v0:11|)) ?x36) (<= (+ ?x552 (* 9 |v2:9|)) ?x103))))
(let (($x600 (or (or $x556 (or (<= ?x561 ?x173) (<= ?x566 ?x86))) (or (or (<= (+ ?x573 ?x117) ?x226) (<= (+ ?x580 ?x460) ?x71)) $x598))))
(let ((?x238 (* ?x90 |v2:9|)))
(let ((?x535 (+ (+ (* 16 |v1:10|) (* 3 |v7:4|)) (* 14 |v9:2|))))
(let ((?x32 10))
(let ((?x529 (+ (+ (+ (* ?x173 |v1:10|) (* ?x90 |v8:3|)) (* ?x138 |v0:11|)) (* (- 10) |v2:9|))))
(let ((?x144 6))
(let ((?x149 (- 20)))
(let ((?x215 (* ?x149 |v0:11|)))
(let (($x521 (<= (+ (+ (+ (* ?x144 |v4:7|) |v0:11|) (* 13 |v0:11|)) ?x215) ?x144)))
(let ((?x159 (- 4)))
(let ((?x513 (+ (+ (* 11 |v8:3|) (* 9 |v11:0|)) (* 18 |v0:11|))))
(let (($x539 (and (and (<= (+ ?x513 (* (- 11) |v6:5|)) ?x159) $x521) (or (<= ?x529 ?x32) (<= (+ ?x535 ?x238) ?x49)))))
(let ((?x41 (- 2)))
(let ((?x505 (+ (+ (+ (* ?x36 |v2:9|) (* ?x173 |v5:6|)) (* 16 |v10:1|)) (* (- 17) |v5:6|))))
(let ((?x10 (- 17)))
(let (($x501 (<= (+ (+ (+ (* ?x173 |v7:4|) |v11:0|) (* (- 11) |v7:4|)) ?x212) ?x10)))
(let ((?x321 (- 18)))
(let ((?x494 (+ (+ (+ (* (- 16) |v2:9|) (* ?x149 |v6:5|)) (* ?x49 |v6:5|)) (* (- 1) |v11:0|))))
(let ((?x184 (- 1)))
(let ((?x74 (* ?x49 |v5:6|)))
(let ((?x310 (- 3)))
(let ((?x311 (* ?x310 |v10:1|)))
(let ((?x487 (+ (+ (+ (* (- 12) |v8:3|) (* (- 7) |v5:6|)) ?x311) ?x74)))
(let (($x540 (and (or (and (<= ?x487 ?x184) (<= ?x494 ?x321)) (and $x501 (<= ?x505 ?x41))) $x539)))
(let ((?x135 3))
(let ((?x131 15))
(let ((?x204 (* ?x131 |v2:9|)))
(let ((?x478 (+ (+ (+ (* 20 |v3:8|) (* ?x159 |v6:5|)) ?x204) (* ?x90 |v9:2|))))
(let ((?x472 (+ (+ (+ (* ?x138 |v11:0|) (* ?x103 |v5:6|)) (* ?x135 |v3:8|)) (* 11 |v1:10|))))
(let ((?x14 20))
(let ((?x465 (+ (+ (+ (* ?x159 |v1:10|) ?x460) (* (- 15) |v1:10|)) (* (- 16) |v5:6|))))
(let ((?x60 5))
(let ((?x190 (* ?x138 |v7:4|)))
(let (($x458 (<= (+ (+ (+ (* ?x103 |v7:4|) (* ?x32 |v7:4|)) (* ?x32 |v3:8|)) ?x190) ?x60)))
(let ((?x447 (* ?x135 |v8:3|)))
(let ((?x448 (+ (+ (+ (* ?x65 |v4:7|) (* ?x131 |v6:5|)) (* 13 |v0:11|)) ?x447)))
(let ((?x220 13))
(let ((?x221 (* ?x220 |v7:4|)))
(let ((?x442 (+ (+ (+ (* ?x10 |v9:2|) (* 16 |v7:4|)) ?x221) (* (- 5) |v8:3|))))
(let ((?x434 (+ (+ (+ (* ?x220 |v0:11|) (* (- 5) |v9:2|)) (* ?x173 |v3:8|)) (* ?x226 |v11:0|))))
(let ((?x193 8))
(let ((?x342 (* ?x193 |v5:6|)))
(let (($x427 (<= (+ (+ (+ (* ?x90 |v4:7|) (* ?x90 |v7:4|)) (* ?x103 |v6:5|)) ?x342) ?x144)))
(let (($x482 (and (or (and $x427 (<= ?x434 ?x226)) (and (<= ?x442 ?x310) (<= ?x448 ?x36))) (or (and $x458 (<= ?x465 ?x14)) (or (<= ?x472 ?x144) (<= ?x478 ?x135))))))
(let ((?x415 (* ?x173 |v7:4|)))
(let ((?x346 (* ?x193 |v0:11|)))
(let ((?x416 (+ (+ (+ (* 9 |v7:4|) (* 12 |v6:5|)) ?x346) ?x415)))
(let ((?x409 (+ (+ (+ |v8:3| (* (- 14) |v8:3|)) (* 16 |v9:2|)) (* (- 16) |v0:11|))))
(let ((?x399 (+ (+ (* ?x173 |v5:6|) (* (- 11) |v10:1|)) (* (- 7) |v6:5|))))
(let ((?x391 (+ (+ (* (- 11) |v9:2|) (* (- 10) |v11:0|)) (* ?x310 |v4:7|))))
(let (($x403 (or (<= (+ ?x391 (* ?x138 |v3:8|)) ?x71) (<= (+ ?x399 (* ?x60 |v8:3|)) ?x310))))
(let ((?x382 (* ?x135 |v3:8|)))
(let (($x384 (<= (+ (+ (+ (* ?x41 |v0:11|) (* ?x193 |v8:3|)) (* ?x36 |v0:11|)) ?x382) ?x226)))
(let ((?x348 (* ?x49 |v6:5|)))
(let ((?x376 (+ (+ (* (- 16) |v6:5|) (* (- 5) |v1:10|)) (* ?x41 |v7:4|))))
(let ((?x97 (- 15)))
(let ((?x370 (* ?x97 |v11:0|)))
(let (($x372 (<= (+ (+ (+ (* ?x36 |v0:11|) (* ?x41 |v0:11|)) (* ?x10 |v8:3|)) ?x370) ?x159)))
(let ((?x253 (- 12)))
(let ((?x153 (* ?x49 |v9:2|)))
(let ((?x362 (+ (+ (* (- 16) |v6:5|) (* ?x65 |v9:2|)) (* 11 |v6:5|))))
(let (($x386 (and (and (<= (+ ?x362 ?x153) ?x253) $x372) (or (<= (+ ?x376 ?x348) ?x14) $x384))))
(let (($x483 (and (and $x386 (and $x403 (and (<= ?x409 ?x193) (<= ?x416 ?x135)))) $x482)))
(let ((?x94 18))
(let ((?x351 (+ (+ (+ (* 12 |v0:11|) ?x346) ?x348) (* (- 5) |v6:5|))))
(let ((?x56 16))
(let ((?x340 (* ?x56 |v10:1|)))
(let (($x353 (and (<= (+ (+ (+ (* ?x149 |v7:4|) (* ?x56 |v6:5|)) ?x340) ?x342) ?x90) (<= ?x351 ?x94))))
(let ((?x334 (+ (+ (+ (* 11 |v2:9|) (* ?x135 |v0:11|)) (* ?x94 |v5:6|)) (* ?x173 |v11:0|))))
(let (($x336 (or (<= (+ (+ (+ |v2:9| (* ?x321 |v10:1|)) (* ?x159 |v6:5|)) |v9:2|) ?x159) (<= ?x334 ?x90))))
(let ((?x111 (- 7)))
(let (($x317 (<= (+ (+ (+ (* ?x184 |v7:4|) ?x311) (* ?x131 |v6:5|)) (* ?x135 |v2:9|)) ?x111)))
(let ((?x304 (+ (+ (* (- 10) |v0:11|) (* (- 5) |v1:10|)) (* ?x184 |v2:9|))))
(let ((?x295 (+ (+ (+ (* (- 11) |v5:6|) ?x212) (* (- 5) |v3:8|)) (* ?x97 |v4:7|))))
(let ((?x286 (+ (+ (+ (* ?x86 |v8:3|) (* (- 13) |v8:3|)) (* ?x41 |v6:5|)) |v3:8|)))
(let (($x319 (and (or (<= ?x286 ?x149) (<= ?x295 ?x159)) (and (<= (+ ?x304 (* ?x184 |v6:5|)) ?x111) $x317))))
(let ((?x24 14))
(let ((?x276 (+ (+ (+ (* ?x32 |v5:6|) (* 9 |v0:11|)) (* ?x14 |v0:11|)) (* ?x226 |v0:11|))))
(let ((?x268 (+ (+ (+ (* ?x71 |v2:9|) (* ?x97 |v5:6|)) (* ?x111 |v8:3|)) (* ?x60 |v10:1|))))
(let ((?x46 11))
(let ((?x259 (+ (+ (+ (* ?x10 |v7:4|) (* ?x86 |v10:1|)) (* ?x36 |v2:9|)) (* ?x253 |v3:8|))))
(let ((?x252 (+ (+ (+ (* ?x220 |v6:5|) ?x238) (* (- 14) |v3:8|)) (* ?x24 |v1:10|))))
(let (($x279 (and (and (<= ?x252 ?x253) (<= ?x259 ?x46)) (or (<= ?x268 ?x173) (<= ?x276 ?x24)))))
(let (($x244 (<= (+ (+ (+ (* ?x159 |v0:11|) ?x238) (* ?x71 |v1:10|)) (* ?x41 |v10:1|)) ?x138)))
(let ((?x78 (- 14)))
(let (($x237 (<= (+ (+ (+ (* ?x10 |v7:4|) (* ?x220 |v8:3|)) ?x221) (* ?x86 |v10:1|)) ?x78)))
(let (($x229 (<= (+ (+ (+ (* ?x173 |v2:9|) ?x221) (* ?x159 |v3:8|)) (* ?x226 |v2:9|)) ?x94)))
(let (($x230 (and (<= (+ (+ (+ (* ?x41 |v11:0|) ?x212) (* ?x14 |v11:0|)) ?x215) ?x193) $x229)))
(let (($x206 (<= (+ (+ (+ (* ?x78 |v10:1|) (* ?x32 |v5:6|)) (* ?x94 |v6:5|)) ?x204) ?x65)))
(let (($x198 (<= (+ (+ (+ (* ?x71 |v6:5|) ?x190) (* ?x193 |v6:5|)) (* ?x24 |v6:5|)) ?x144)))
(let ((?x186 (+ (+ (+ (* ?x46 |v3:8|) (* ?x71 |v3:8|)) (* ?x78 |v3:8|)) (* ?x184 |v10:1|))))
(let ((?x37 (* ?x36 |v7:4|)))
(let (($x177 (<= (+ (+ (+ (* ?x78 |v5:6|) (* ?x14 |v1:10|)) (* ?x173 |v9:2|)) ?x37) ?x71)))
(let ((?x166 (- 5)))
(let ((?x165 (+ (+ (+ (* ?x103 |v0:11|) (* ?x159 |v0:11|)) (* ?x78 |v11:0|)) (* (- 13) |v4:7|))))
(let (($x155 (<= (+ (+ (+ (* 12 |v4:7|) (* ?x149 |v3:8|)) |v4:7|) ?x153) ?x149)))
(let ((?x79 (* ?x78 |v4:7|)))
(let (($x145 (<= (+ (+ (+ (* ?x135 |v5:6|) (* ?x138 |v10:1|)) (* ?x14 |v0:11|)) ?x79) ?x144)))
(let ((?x128 (+ (+ (* ?x78 |v5:6|) (* (- 13) |v3:8|)) (* (- 16) |v10:1|))))
(let (($x169 (and (or (<= (+ ?x128 (* ?x111 |v3:8|)) ?x131) $x145) (or $x155 (<= ?x165 ?x166)))))
(let (($x119 (<= (+ (+ (+ (* ?x111 |v5:6|) (* ?x32 |v6:5|)) (* ?x65 |v7:4|)) ?x117) ?x60)))
(let (($x109 (<= (+ (+ (+ (* ?x46 |v0:11|) (* ?x103 |v5:6|)) |v9:2|) (* ?x32 |v0:11|)) ?x71)))
(let ((?x99 (+ (+ (+ (* ?x86 |v5:6|) (* ?x90 |v6:5|)) (* ?x94 |v4:7|)) (* ?x97 |v0:11|))))
(let ((?x68 (- 13)))
(let ((?x66 (* ?x65 |v0:11|)))
(let (($x69 (<= (+ (+ (+ (* ?x32 |v2:9|) (* ?x56 |v5:6|)) (* ?x60 |v1:10|)) ?x66) ?x68)))
(let (($x50 (<= (+ (+ (+ (* ?x32 |v8:3|) ?x37) (* ?x41 |v1:10|)) (* ?x46 |v5:6|)) ?x49)))
(let ((?x27 12))
(let ((?x26 (+ (+ (+ (* ?x10 |v10:1|) (* ?x14 |v11:0|)) (* (- 16) |v9:2|)) (* ?x24 |v3:8|))))
(let (($x83 (and (or (<= ?x26 ?x27) $x50) (or $x69 (<= (+ (+ (+ (* ?x71 |v11:0|) ?x66) ?x74) ?x79) ?x46)))))
(let (($x210 (or (and $x83 (and (<= ?x99 ?x97) (or $x109 $x119))) (and $x169 (or (and $x177 (<= ?x186 ?x131)) (or $x198 $x206))))))
(let (($x357 (or $x210 (or (or (or $x230 (and $x237 $x244)) $x279) (and $x319 (or $x336 $x353))))))
(or $x357 (and $x483 (and $x540 $x600)))))))))))))))))))))))))))))))))))))))))))))))))))))))))))))))))))))))))))))))))))))))))))))))))))))))))))))))))))))))))))))))))))))))))))
)
)
)
)
)
)
)
)
)
)
)
)
(check-sat)
(exit)

